85636.85
190 192 194 196 198 197 195 193 191 189 187 185 184 183 181 182 178 215 223 217 224 225 216 218 0 219 1 2 220 3 221 222 4 5 12 14 6 7 13 15 20 22 21 19 17 8 9 10 16 18 11 104 106 108 110 112 111 109 107 105 103 102 101 100 99 98 97 96 95 94 93 92 91 90 89 88 87 86 85 84 83 82 81 80 79 78 77 76 75 74 73 72 71 70 69 68 67 66 65 64 63 62 61 60 59 58 57 56 55 54 53 52 51 50 49 48 47 46 45 44 43 41 42 40 39 38 37 35 34 36 29 28 27 26 33 31 25 24 32 30 23 214 206 205 204 213 212 211 203 202 210 209 200 201 208 207 199 155 159 158 157 156 154 153 152 151 150 149 148 145 161 160 144 143 147 146 142 141 139 140 138 137 136 135 134 133 162 164 166 168 170 172 174 176 175 173 171 169 167 165 163 132 177 131 130 129 179 180 128 125 124 123 127 126 122 121 119 120 118 117 116 115 114 113 186 188